
Gurobi 11.0.2 (win64) logging started Wed Aug  7 21:24:15 2024

Set parameter LogFile to value "D:\Documenti\Scuola\Laurea magistrale unibs\laurea-unibs-mkfsp\output\2024-08-07T17_25_17.381079\logs\instance12_bucket5.log"
Set parameter TimeLimit to value 8.2535955399740487e+01
Set parameter MIPGap to value 0
Gurobi Optimizer version 11.0.2 build v11.0.2rc0 (win64 - Windows 10.0 (19045.2))

CPU model: Intel(R) Core(TM) i5-4670 CPU @ 3.40GHz, instruction set [SSE2|AVX|AVX2]
Thread count: 4 physical cores, 4 logical processors, using up to 4 threads

Optimize a model with 16899 rows, 90828 columns and 2554624 nonzeros
Model fingerprint: 0x07ec4bd1
Variable types: 0 continuous, 90828 integer (90129 binary)
Coefficient statistics:
  Matrix range     [1e+00, 9e+03]
  Objective range  [6e+02, 9e+03]
  Bounds range     [1e+00, 1e+00]
  RHS range        [1e+00, 4e+06]
Presolve removed 0 rows and 0 columns (presolve time = 5s) ...
Presolve time: 6.79s
Presolved: 16899 rows, 90828 columns, 2554624 nonzeros
Variable types: 0 continuous, 90828 integer (90129 binary)
Deterministic concurrent LP optimizer: primal simplex, dual simplex, and barrier
Showing barrier log only...

Root barrier log...

Ordering time: 0.26s

Barrier statistics:
 AA' NZ     : 2.719e+06
 Factor NZ  : 2.908e+06 (roughly 60 MB of memory)
 Factor Ops : 1.372e+09 (less than 1 second per iteration)
 Threads    : 1

                  Objective                Residual
Iter       Primal          Dual         Primal    Dual     Compl     Time
   0   5.52397076e+08  4.13142808e+08  2.79e+07 0.00e+00  1.55e+06    10s
   1   1.03231175e+08  4.32954890e+08  4.59e+06 5.40e-13  2.74e+05    11s
   2   4.74758812e+06  4.11657072e+08  5.74e+04 4.38e-12  5.84e+03    11s
   3   3.60232684e+06  1.67437657e+08  1.12e+03 5.74e-12  1.05e+03    12s
   4   3.60121827e+06  1.86366473e+07  7.55e-14 6.18e-13  9.29e+01    13s
   5   3.84837121e+06  6.32495800e+06  4.91e-14 6.75e-14  1.53e+01    13s
   6   3.86372459e+06  4.03195666e+06  5.08e-14 3.91e-14  1.04e+00    14s
   7   3.86877360e+06  3.91221812e+06  1.03e-13 4.11e-14  2.68e-01    14s
   8   3.87155849e+06  3.87939142e+06  5.28e-13 4.00e-14  4.84e-02    15s
   9   3.87258313e+06  3.87368989e+06  4.10e-12 3.91e-14  6.84e-03    16s
  10   3.87269779e+06  3.87285020e+06  7.30e-12 3.20e-14  9.42e-04    16s
  11   3.87274078e+06  3.87274816e+06  1.51e-11 4.26e-14  4.56e-05    17s
  12   3.87274510e+06  3.87274531e+06  3.00e-13 4.22e-14  1.32e-06    18s
  13   3.87274519e+06  3.87274520e+06  1.25e-11 3.91e-14  3.18e-08    18s
  14   3.87274519e+06  3.87274520e+06  2.15e-07 3.38e-14  4.20e-09    19s

Barrier solved model in 14 iterations and 19.18 seconds (12.17 work units)
Optimal objective 3.87274519e+06


Root crossover log...

    1678 DPushes remaining with DInf 0.0000000e+00                19s
     838 DPushes remaining with DInf 0.0000000e+00                20s
       0 DPushes remaining with DInf 0.0000000e+00                22s

   71273 PPushes remaining with PInf 1.2552207e-04                22s
   64537 PPushes remaining with PInf 0.0000000e+00                25s
   56734 PPushes remaining with PInf 0.0000000e+00                30s
   49251 PPushes remaining with PInf 0.0000000e+00                35s
   42010 PPushes remaining with PInf 0.0000000e+00                40s
   34738 PPushes remaining with PInf 0.0000000e+00                45s
   27514 PPushes remaining with PInf 0.0000000e+00                50s
   20416 PPushes remaining with PInf 0.0000000e+00                55s
   13352 PPushes remaining with PInf 0.0000000e+00                60s
    5646 PPushes remaining with PInf 0.0000000e+00                65s
       0 PPushes remaining with PInf 0.0000000e+00                69s

  Push phase complete: Pinf 0.0000000e+00, Dinf 5.1397903e-11     69s


Root simplex log...

Iteration    Objective       Primal Inf.    Dual Inf.      Time
   72734    3.8727452e+06   0.000000e+00   0.000000e+00     69s
Concurrent spin time: 2.30s

Solved with dual simplex

Root simplex log...

Iteration    Objective       Primal Inf.    Dual Inf.      Time
   19406    3.8727452e+06   0.000000e+00   0.000000e+00     71s

Root relaxation: objective 3.872745e+06, 19406 iterations, 63.48 seconds (44.59 work units)

    Nodes    |    Current Node    |     Objective Bounds      |     Work
 Expl Unexpl |  Obj  Depth IntInf | Incumbent    BestBd   Gap | It/Node Time

     0     0 3872745.20    0 5248          - 3872745.20      -     -   82s

Explored 1 nodes (24370 simplex iterations) in 82.59 seconds (59.07 work units)
Thread count was 4 (of 4 available processors)

Solution count 0

Time limit reached
Best objective -, best bound 3.872745195305e+06, gap -
